% seed = 5219595

mint = 67;
% maxt = 202;

nActs = 42;
dur = [0,9,3,4,8,5,5,5,10,10,3,5,1,3,9,1,7,3,2,7,5,1,5,2,1,6,7,9,1,10,4,4,1,6,5,9,6,10,1,8,1,0];

nSkills = 4;
sreq = [| 0,0,0,0,
	| 1,5,4,1,
	| 4,2,4,3,
	| 6,3,5,0,
	| 5,0,0,7,
	| 0,2,6,0,
	| 0,7,5,0,
	| 0,7,0,7,
	| 5,4,6,0,
	| 2,0,5,0,
	| 0,7,3,0,
	| 2,4,4,2,
	| 3,2,2,3,
	| 3,2,3,2,
	| 4,7,4,0,
	| 3,2,4,6,
	| 4,3,4,4,
	| 0,5,0,6,
	| 0,5,5,0,
	| 3,7,4,0,
	| 3,5,2,3,
	| 6,0,0,2,
	| 3,4,6,0,
	| 3,5,4,3,
	| 2,2,4,4,
	| 4,0,5,5,
	| 5,0,7,0,
	| 6,0,6,0,
	| 4,0,2,2,
	| 0,7,6,0,
	| 3,2,3,5,
	| 1,0,3,3,
	| 3,5,2,0,
	| 2,4,3,5,
	| 4,7,3,0,
	| 3,5,6,0,
	| 0,6,3,4,
	| 6,4,2,0,
	| 2,2,3,3,
	| 5,0,7,3,
	| 7,0,0,3,
	| 0,0,0,0, |];

nResources = 45;
mastery = [| false,true,false,false,
	| false,true,true,true,
	| true,true,false,true,
	| false,false,true,true,
	| true,false,false,false,
	| true,false,true,false,
	| false,true,true,false,
	| false,true,false,true,
	| false,false,false,true,
	| true,true,true,false,
	| false,true,true,false,
	| true,false,false,true,
	| false,true,true,true,
	| false,true,true,false,
	| true,true,true,false,
	| false,false,true,true,
	| true,false,false,false,
	| true,true,false,false,
	| true,false,false,true,
	| false,true,false,true,
	| false,true,true,true,
	| true,true,true,false,
	| true,true,false,false,
	| false,true,false,false,
	| true,true,true,false,
	| true,true,true,false,
	| false,false,true,true,
	| true,true,true,false,
	| false,true,true,false,
	| true,true,false,true,
	| true,false,false,true,
	| true,false,false,true,
	| true,false,true,true,
	| false,true,true,true,
	| true,true,true,false,
	| false,true,false,false,
	| false,true,false,false,
	| true,false,true,true,
	| false,true,true,false,
	| true,false,true,false,
	| true,false,false,true,
	| true,true,false,true,
	| true,false,false,true,
	| true,false,true,false,
	| true,false,true,false, |];

nPrecs = 85;
pred = [1,1,1,2,2,2,3,3,3,4,4,4,5,6,6,6,7,7,7,8,8,8,9,9,9,10,10,10,11,11,11,12,12,12,13,13,13,14,14,14,15,15,15,16,16,16,17,17,17,18,19,19,20,20,21,21,21,22,23,23,23,24,24,25,26,26,27,28,29,29,30,31,32,32,33,34,34,35,35,36,37,38,39,40,41];
succ = [2,3,4,13,5,7,9,13,6,30,23,38,8,10,12,14,17,10,16,17,11,15,18,36,31,18,31,15,38,23,16,26,24,32,25,18,32,28,20,23,24,21,40,28,21,40,25,19,38,34,37,40,22,24,33,29,22,25,26,29,31,36,30,26,27,35,33,35,34,35,41,32,33,37,34,41,39,36,39,37,41,39,42,42,42];

nUnrels = 349;
unpred = [2,2,2,2,2,2,2,3,3,3,3,3,3,3,3,3,4,4,4,4,4,4,4,4,4,4,4,4,4,4,4,4,4,4,4,4,4,4,5,5,5,5,5,5,5,5,5,6,6,6,6,6,6,6,6,6,7,7,7,7,7,7,7,7,8,8,8,8,8,8,8,9,9,9,9,9,9,9,9,9,9,9,9,9,9,9,9,9,9,9,9,9,9,9,10,10,10,10,10,10,10,10,10,10,10,11,11,11,11,11,11,11,11,11,11,12,12,12,12,12,12,12,12,12,12,12,12,12,12,12,12,12,13,13,13,13,13,13,13,13,13,13,13,13,13,13,13,13,14,14,14,14,14,14,14,14,15,15,15,15,15,15,15,15,15,15,16,16,16,16,16,16,16,16,16,16,17,17,17,17,17,17,17,17,17,17,17,18,18,18,18,18,18,18,18,18,18,18,18,18,18,18,18,18,18,18,18,19,19,19,19,19,19,19,19,19,19,19,19,19,19,19,19,19,19,19,20,20,20,20,20,20,20,20,21,21,21,21,21,21,21,21,22,22,22,22,22,22,22,22,22,23,23,23,23,23,23,24,24,24,24,24,24,24,24,24,24,24,24,24,25,25,25,25,25,25,25,26,26,26,26,26,26,26,27,27,27,27,27,27,27,27,27,27,28,28,28,28,28,28,28,28,29,29,29,29,29,29,30,30,30,30,30,30,30,30,30,30,31,31,31,31,32,32,32,32,33,33,33,33,33,34,34,34,34,34,35,35,36,36,36,37,37,37,38,38,39,39,40];
unsucc = [3,4,6,9,12,14,20,4,5,7,8,11,16,17,19,38,5,6,7,8,9,10,11,12,13,14,15,16,17,18,19,20,21,22,24,25,28,40,6,7,9,10,12,13,14,18,20,7,8,9,11,13,16,17,19,38,8,9,11,12,13,14,20,23,9,10,12,13,14,18,20,10,11,12,13,14,15,16,17,19,20,21,22,23,24,25,26,27,28,29,30,35,38,40,11,12,13,14,16,17,19,20,23,28,38,12,13,14,15,17,18,19,20,24,30,13,14,15,16,17,18,19,20,21,22,23,25,28,29,31,38,40,14,15,16,17,19,20,21,22,23,24,28,29,30,31,38,40,15,16,17,18,19,21,38,40,16,17,18,19,20,23,28,31,32,38,17,18,19,20,23,24,30,31,32,38,18,20,21,22,23,24,28,29,30,31,32,19,20,21,22,23,24,25,26,27,28,29,30,31,32,33,35,36,37,38,40,20,21,22,23,24,25,26,27,28,29,30,31,32,33,34,35,36,38,39,21,23,28,29,31,32,38,40,23,24,28,30,31,32,38,40,23,24,28,29,30,31,32,38,40,24,25,28,30,38,40,25,26,27,28,29,31,32,33,34,35,38,39,40,28,29,30,31,32,38,40,28,29,30,31,32,38,40,28,29,30,31,32,35,36,37,38,40,29,30,31,32,33,34,38,40,30,31,32,33,38,40,31,32,33,34,35,36,37,38,39,40,35,36,38,40,35,36,38,40,35,36,37,38,40,35,36,37,38,40,38,40,38,39,40,38,39,40,40,41,40,41,41];

USEFUL_RES = [{},
	{1,2,3,4,5,6,7,8,9,10,11,12,13,14,15,16,17,18,19,20,21,22,23,24,25,26,27,28,29,30,31,32,33,34,35,36,37,38,39,40,41,42,43,44,45},
	{1,2,3,4,5,6,7,8,9,10,11,12,13,14,15,16,17,18,19,20,21,22,23,24,25,26,27,28,29,30,31,32,33,34,35,36,37,38,39,40,41,42,43,44,45},
	{1,2,3,4,5,6,7,8,10,11,12,13,14,15,16,17,18,19,20,21,22,23,24,25,26,27,28,29,30,31,32,33,34,35,36,37,38,39,40,41,42,43,44,45},
	{2,3,4,5,6,8,9,10,12,13,15,16,17,18,19,20,21,22,23,25,26,27,28,30,31,32,33,34,35,38,40,41,42,43,44,45},
	{1,2,3,4,6,7,8,10,11,13,14,15,16,18,20,21,22,23,24,25,26,27,28,29,30,33,34,35,36,37,38,39,40,42,44,45},
	{1,2,3,4,6,7,8,10,11,13,14,15,16,18,20,21,22,23,24,25,26,27,28,29,30,33,34,35,36,37,38,39,40,42,44,45},
	{1,2,3,4,7,8,9,10,11,12,13,14,15,16,18,19,20,21,22,23,24,25,26,27,28,29,30,31,32,33,34,35,36,37,38,39,41,42,43},
	{1,2,3,4,5,6,7,8,10,11,12,13,14,15,16,17,18,19,20,21,22,23,24,25,26,27,28,29,30,31,32,33,34,35,36,37,38,39,40,41,42,43,44,45},
	{2,3,4,5,6,7,10,11,12,13,14,15,16,17,18,19,21,22,23,25,26,27,28,29,30,31,32,33,34,35,38,39,40,41,42,43,44,45},
	{1,2,3,4,6,7,8,10,11,13,14,15,16,18,20,21,22,23,24,25,26,27,28,29,30,33,34,35,36,37,38,39,40,42,44,45},
	{1,2,3,4,5,6,7,8,9,10,11,12,13,14,15,16,17,18,19,20,21,22,23,24,25,26,27,28,29,30,31,32,33,34,35,36,37,38,39,40,41,42,43,44,45},
	{1,2,3,4,5,6,7,8,9,10,11,12,13,14,15,16,17,18,19,20,21,22,23,24,25,26,27,28,29,30,31,32,33,34,35,36,37,38,39,40,41,42,43,44,45},
	{1,2,3,4,5,6,7,8,9,10,11,12,13,14,15,16,17,18,19,20,21,22,23,24,25,26,27,28,29,30,31,32,33,34,35,36,37,38,39,40,41,42,43,44,45},
	{1,2,3,4,5,6,7,8,10,11,12,13,14,15,16,17,18,19,20,21,22,23,24,25,26,27,28,29,30,31,32,33,34,35,36,37,38,39,40,41,42,43,44,45},
	{1,2,3,4,5,6,7,8,9,10,11,12,13,14,15,16,17,18,19,20,21,22,23,24,25,26,27,28,29,30,31,32,33,34,35,36,37,38,39,40,41,42,43,44,45},
	{1,2,3,4,5,6,7,8,9,10,11,12,13,14,15,16,17,18,19,20,21,22,23,24,25,26,27,28,29,30,31,32,33,34,35,36,37,38,39,40,41,42,43,44,45},
	{1,2,3,4,7,8,9,10,11,12,13,14,15,16,18,19,20,21,22,23,24,25,26,27,28,29,30,31,32,33,34,35,36,37,38,39,41,42,43},
	{1,2,3,4,6,7,8,10,11,13,14,15,16,18,20,21,22,23,24,25,26,27,28,29,30,33,34,35,36,37,38,39,40,42,44,45},
	{1,2,3,4,5,6,7,8,10,11,12,13,14,15,16,17,18,19,20,21,22,23,24,25,26,27,28,29,30,31,32,33,34,35,36,37,38,39,40,41,42,43,44,45},
	{1,2,3,4,5,6,7,8,9,10,11,12,13,14,15,16,17,18,19,20,21,22,23,24,25,26,27,28,29,30,31,32,33,34,35,36,37,38,39,40,41,42,43,44,45},
	{2,3,4,5,6,8,9,10,12,13,15,16,17,18,19,20,21,22,23,25,26,27,28,30,31,32,33,34,35,38,40,41,42,43,44,45},
	{1,2,3,4,5,6,7,8,10,11,12,13,14,15,16,17,18,19,20,21,22,23,24,25,26,27,28,29,30,31,32,33,34,35,36,37,38,39,40,41,42,43,44,45},
	{1,2,3,4,5,6,7,8,9,10,11,12,13,14,15,16,17,18,19,20,21,22,23,24,25,26,27,28,29,30,31,32,33,34,35,36,37,38,39,40,41,42,43,44,45},
	{1,2,3,4,5,6,7,8,9,10,11,12,13,14,15,16,17,18,19,20,21,22,23,24,25,26,27,28,29,30,31,32,33,34,35,36,37,38,39,40,41,42,43,44,45},
	{2,3,4,5,6,7,8,9,10,11,12,13,14,15,16,17,18,19,20,21,22,23,25,26,27,28,29,30,31,32,33,34,35,38,39,40,41,42,43,44,45},
	{2,3,4,5,6,7,10,11,12,13,14,15,16,17,18,19,21,22,23,25,26,27,28,29,30,31,32,33,34,35,38,39,40,41,42,43,44,45},
	{2,3,4,5,6,7,10,11,12,13,14,15,16,17,18,19,21,22,23,25,26,27,28,29,30,31,32,33,34,35,38,39,40,41,42,43,44,45},
	{2,3,4,5,6,7,8,9,10,11,12,13,14,15,16,17,18,19,20,21,22,23,25,26,27,28,29,30,31,32,33,34,35,38,39,40,41,42,43,44,45},
	{1,2,3,4,6,7,8,10,11,13,14,15,16,18,20,21,22,23,24,25,26,27,28,29,30,33,34,35,36,37,38,39,40,42,44,45},
	{1,2,3,4,5,6,7,8,9,10,11,12,13,14,15,16,17,18,19,20,21,22,23,24,25,26,27,28,29,30,31,32,33,34,35,36,37,38,39,40,41,42,43,44,45},
	{2,3,4,5,6,7,8,9,10,11,12,13,14,15,16,17,18,19,20,21,22,23,25,26,27,28,29,30,31,32,33,34,35,38,39,40,41,42,43,44,45},
	{1,2,3,4,5,6,7,8,10,11,12,13,14,15,16,17,18,19,20,21,22,23,24,25,26,27,28,29,30,31,32,33,34,35,36,37,38,39,40,41,42,43,44,45},
	{1,2,3,4,5,6,7,8,9,10,11,12,13,14,15,16,17,18,19,20,21,22,23,24,25,26,27,28,29,30,31,32,33,34,35,36,37,38,39,40,41,42,43,44,45},
	{1,2,3,4,5,6,7,8,10,11,12,13,14,15,16,17,18,19,20,21,22,23,24,25,26,27,28,29,30,31,32,33,34,35,36,37,38,39,40,41,42,43,44,45},
	{1,2,3,4,5,6,7,8,10,11,12,13,14,15,16,17,18,19,20,21,22,23,24,25,26,27,28,29,30,31,32,33,34,35,36,37,38,39,40,41,42,43,44,45},
	{1,2,3,4,6,7,8,9,10,11,12,13,14,15,16,18,19,20,21,22,23,24,25,26,27,28,29,30,31,32,33,34,35,36,37,38,39,40,41,42,43,44,45},
	{1,2,3,4,5,6,7,8,10,11,12,13,14,15,16,17,18,19,20,21,22,23,24,25,26,27,28,29,30,31,32,33,34,35,36,37,38,39,40,41,42,43,44,45},
	{1,2,3,4,5,6,7,8,9,10,11,12,13,14,15,16,17,18,19,20,21,22,23,24,25,26,27,28,29,30,31,32,33,34,35,36,37,38,39,40,41,42,43,44,45},
	{2,3,4,5,6,7,8,9,10,11,12,13,14,15,16,17,18,19,20,21,22,23,25,26,27,28,29,30,31,32,33,34,35,38,39,40,41,42,43,44,45},
	{2,3,4,5,6,8,9,10,12,13,15,16,17,18,19,20,21,22,23,25,26,27,28,30,31,32,33,34,35,38,40,41,42,43,44,45},
	{}];

POTENTIAL_ACT = [{2,3,4,6,7,8,9,11,12,13,14,15,16,17,18,19,20,21,23,24,25,30,31,33,34,35,36,37,38,39},
	{2,3,4,5,6,7,8,9,10,11,12,13,14,15,16,17,18,19,20,21,22,23,24,25,26,27,28,29,30,31,32,33,34,35,36,37,38,39,40,41},
	{2,3,4,5,6,7,8,9,10,11,12,13,14,15,16,17,18,19,20,21,22,23,24,25,26,27,28,29,30,31,32,33,34,35,36,37,38,39,40,41},
	{2,3,4,5,6,7,8,9,10,11,12,13,14,15,16,17,18,19,20,21,22,23,24,25,26,27,28,29,30,31,32,33,34,35,36,37,38,39,40,41},
	{2,3,4,5,9,10,12,13,14,15,16,17,20,21,22,23,24,25,26,27,28,29,31,32,33,34,35,36,38,39,40,41},
	{2,3,4,5,6,7,9,10,11,12,13,14,15,16,17,19,20,21,22,23,24,25,26,27,28,29,30,31,32,33,34,35,36,37,38,39,40,41},
	{2,3,4,6,7,8,9,10,11,12,13,14,15,16,17,18,19,20,21,23,24,25,26,27,28,29,30,31,32,33,34,35,36,37,38,39,40},
	{2,3,4,5,6,7,8,9,11,12,13,14,15,16,17,18,19,20,21,22,23,24,25,26,29,30,31,32,33,34,35,36,37,38,39,40,41},
	{2,3,5,8,12,13,14,16,17,18,21,22,24,25,26,29,31,32,34,37,39,40,41},
	{2,3,4,5,6,7,8,9,10,11,12,13,14,15,16,17,18,19,20,21,22,23,24,25,26,27,28,29,30,31,32,33,34,35,36,37,38,39,40,41},
	{2,3,4,6,7,8,9,10,11,12,13,14,15,16,17,18,19,20,21,23,24,25,26,27,28,29,30,31,32,33,34,35,36,37,38,39,40},
	{2,3,4,5,8,9,10,12,13,14,15,16,17,18,20,21,22,23,24,25,26,27,28,29,31,32,33,34,35,36,37,38,39,40,41},
	{2,3,4,5,6,7,8,9,10,11,12,13,14,15,16,17,18,19,20,21,22,23,24,25,26,27,28,29,30,31,32,33,34,35,36,37,38,39,40,41},
	{2,3,4,6,7,8,9,10,11,12,13,14,15,16,17,18,19,20,21,23,24,25,26,27,28,29,30,31,32,33,34,35,36,37,38,39,40},
	{2,3,4,5,6,7,8,9,10,11,12,13,14,15,16,17,18,19,20,21,22,23,24,25,26,27,28,29,30,31,32,33,34,35,36,37,38,39,40,41},
	{2,3,4,5,6,7,8,9,10,11,12,13,14,15,16,17,18,19,20,21,22,23,24,25,26,27,28,29,30,31,32,33,34,35,36,37,38,39,40,41},
	{2,3,4,5,9,10,12,13,14,15,16,17,20,21,22,23,24,25,26,27,28,29,31,32,33,34,35,36,38,39,40,41},
	{2,3,4,5,6,7,8,9,10,11,12,13,14,15,16,17,18,19,20,21,22,23,24,25,26,27,28,29,30,31,32,33,34,35,36,37,38,39,40,41},
	{2,3,4,5,8,9,10,12,13,14,15,16,17,18,20,21,22,23,24,25,26,27,28,29,31,32,33,34,35,36,37,38,39,40,41},
	{2,3,4,5,6,7,8,9,11,12,13,14,15,16,17,18,19,20,21,22,23,24,25,26,29,30,31,32,33,34,35,36,37,38,39,40,41},
	{2,3,4,5,6,7,8,9,10,11,12,13,14,15,16,17,18,19,20,21,22,23,24,25,26,27,28,29,30,31,32,33,34,35,36,37,38,39,40,41},
	{2,3,4,5,6,7,8,9,10,11,12,13,14,15,16,17,18,19,20,21,22,23,24,25,26,27,28,29,30,31,32,33,34,35,36,37,38,39,40,41},
	{2,3,4,5,6,7,8,9,10,11,12,13,14,15,16,17,18,19,20,21,22,23,24,25,26,27,28,29,30,31,32,33,34,35,36,37,38,39,40,41},
	{2,3,4,6,7,8,9,11,12,13,14,15,16,17,18,19,20,21,23,24,25,30,31,33,34,35,36,37,38,39},
	{2,3,4,5,6,7,8,9,10,11,12,13,14,15,16,17,18,19,20,21,22,23,24,25,26,27,28,29,30,31,32,33,34,35,36,37,38,39,40,41},
	{2,3,4,5,6,7,8,9,10,11,12,13,14,15,16,17,18,19,20,21,22,23,24,25,26,27,28,29,30,31,32,33,34,35,36,37,38,39,40,41},
	{2,3,4,5,6,7,8,9,10,11,12,13,14,15,16,17,18,19,20,21,22,23,24,25,26,27,28,29,30,31,32,33,34,35,36,37,38,39,40,41},
	{2,3,4,5,6,7,8,9,10,11,12,13,14,15,16,17,18,19,20,21,22,23,24,25,26,27,28,29,30,31,32,33,34,35,36,37,38,39,40,41},
	{2,3,4,6,7,8,9,10,11,12,13,14,15,16,17,18,19,20,21,23,24,25,26,27,28,29,30,31,32,33,34,35,36,37,38,39,40},
	{2,3,4,5,6,7,8,9,10,11,12,13,14,15,16,17,18,19,20,21,22,23,24,25,26,27,28,29,30,31,32,33,34,35,36,37,38,39,40,41},
	{2,3,4,5,8,9,10,12,13,14,15,16,17,18,20,21,22,23,24,25,26,27,28,29,31,32,33,34,35,36,37,38,39,40,41},
	{2,3,4,5,8,9,10,12,13,14,15,16,17,18,20,21,22,23,24,25,26,27,28,29,31,32,33,34,35,36,37,38,39,40,41},
	{2,3,4,5,6,7,8,9,10,11,12,13,14,15,16,17,18,19,20,21,22,23,24,25,26,27,28,29,30,31,32,33,34,35,36,37,38,39,40,41},
	{2,3,4,5,6,7,8,9,10,11,12,13,14,15,16,17,18,19,20,21,22,23,24,25,26,27,28,29,30,31,32,33,34,35,36,37,38,39,40,41},
	{2,3,4,5,6,7,8,9,10,11,12,13,14,15,16,17,18,19,20,21,22,23,24,25,26,27,28,29,30,31,32,33,34,35,36,37,38,39,40,41},
	{2,3,4,6,7,8,9,11,12,13,14,15,16,17,18,19,20,21,23,24,25,30,31,33,34,35,36,37,38,39},
	{2,3,4,6,7,8,9,11,12,13,14,15,16,17,18,19,20,21,23,24,25,30,31,33,34,35,36,37,38,39},
	{2,3,4,5,6,7,8,9,10,11,12,13,14,15,16,17,18,19,20,21,22,23,24,25,26,27,28,29,30,31,32,33,34,35,36,37,38,39,40,41},
	{2,3,4,6,7,8,9,10,11,12,13,14,15,16,17,18,19,20,21,23,24,25,26,27,28,29,30,31,32,33,34,35,36,37,38,39,40},
	{2,3,4,5,6,7,9,10,11,12,13,14,15,16,17,19,20,21,22,23,24,25,26,27,28,29,30,31,32,33,34,35,36,37,38,39,40,41},
	{2,3,4,5,8,9,10,12,13,14,15,16,17,18,20,21,22,23,24,25,26,27,28,29,31,32,33,34,35,36,37,38,39,40,41},
	{2,3,4,5,6,7,8,9,10,11,12,13,14,15,16,17,18,19,20,21,22,23,24,25,26,27,28,29,30,31,32,33,34,35,36,37,38,39,40,41},
	{2,3,4,5,8,9,10,12,13,14,15,16,17,18,20,21,22,23,24,25,26,27,28,29,31,32,33,34,35,36,37,38,39,40,41},
	{2,3,4,5,6,7,9,10,11,12,13,14,15,16,17,19,20,21,22,23,24,25,26,27,28,29,30,31,32,33,34,35,36,37,38,39,40,41},
	{2,3,4,5,6,7,9,10,11,12,13,14,15,16,17,19,20,21,22,23,24,25,26,27,28,29,30,31,32,33,34,35,36,37,38,39,40,41}];
